id: 1314
name: satellites3-40
group: miplib2010
method: 1

Gurobi 7.0.2 (linux64, Matlab) logging started Fri Apr 20 15:41:55 2018


Gurobi 7.0.2 (linux64) logging started Fri Apr 20 15:41:55 2018

Optimize a model with 44804 rows, 81681 columns and 698176 nonzeros
Coefficient statistics:
  Matrix range     [4e-01, 2e+05]
  Objective range  [1e+00, 1e+02]
  Bounds range     [1e+00, 2e+05]
  RHS range        [1e+00, 2e+05]
Presolve removed 7635 rows and 12070 columns
Presolve time: 0.20s
Presolved: 37169 rows, 69611 columns, 605003 nonzeros

Iteration    Objective       Primal Inf.    Dual Inf.      Time
       0      handle free variables                          0s
    5148   -3.9000000e+01   0.000000e+00   0.000000e+00      2s

Solved in 5148 iterations and 2.22 seconds
Optimal objective -3.900000000e+01
status: OPTIMAL
